n_machines = 5;
n_resources = 8;
n_jobs = 79;
horizon = 371;
LB = 79;
n_jobs_per_resource = [15, 13, 11, 9, 14, 5, 5, 7];
duration = [9, 5, 5, 1, 7, 7, 6, 9, 3, 2, 3, 7, 4, 2, 9, 6, 1, 7, 3, 9, 8, 4, 1, 3, 6, 5, 6, 3, 6, 4, 2, 5, 9, 7, 2, 7, 3, 1, 3, 8, 1, 7, 2, 6, 4, 2, 3, 6, 4, 9, 4, 4, 6, 5, 1, 6, 9, 3, 2, 4, 2, 2, 8, 1, 4, 4, 1, 7, 2, 9, 7, 5, 7, 2, 7, 5, 4, 5, 3]